NAME: ETSP
COMMENT: Generated by write_TSPLIB (R package TSP)
TYPE: TSP
DIMENSION: 100
EDGE_WEIGHT_TYPE: EUC_2D
NODE_COORD_SECTION
1 4.450000e+00 1.961300e+01
2 4.450000e+00 3.883900e+01
3 4.450000e+00 5.806400e+01
4 4.450000e+00 7.729000e+01
5 4.450000e+00 9.651600e+01
6 1.000000e+01 1.000000e+01
7 1.000000e+01 2.922600e+01
8 1.000000e+01 4.845200e+01
9 1.000000e+01 6.767700e+01
10 1.000000e+01 8.690300e+01
11 1.555000e+01 1.961300e+01
12 1.555000e+01 3.883900e+01
13 1.555000e+01 5.806400e+01
14 1.555000e+01 7.729000e+01
15 1.555000e+01 9.651600e+01
16 2.110000e+01 1.000000e+01
17 2.110000e+01 2.922600e+01
18 2.110000e+01 4.845200e+01
19 2.110000e+01 6.767700e+01
20 2.110000e+01 8.690300e+01
21 2.665000e+01 1.961300e+01
22 2.665000e+01 3.883900e+01
23 2.665000e+01 5.806400e+01
24 2.665000e+01 7.729000e+01
25 2.665000e+01 9.651600e+01
26 3.220000e+01 1.000000e+01
27 3.220000e+01 2.922600e+01
28 3.220000e+01 4.845200e+01
29 3.220000e+01 6.767700e+01
30 3.220000e+01 8.690300e+01
31 3.775000e+01 1.961300e+01
32 3.775000e+01 3.883900e+01
33 3.775000e+01 5.806400e+01
34 3.775000e+01 7.729000e+01
35 3.775000e+01 9.651600e+01
36 4.330000e+01 1.000000e+01
37 4.330000e+01 2.922600e+01
38 4.330000e+01 4.845200e+01
39 4.330000e+01 6.767700e+01
40 4.330000e+01 8.690300e+01
41 4.885000e+01 1.961300e+01
42 4.885000e+01 3.883900e+01
43 4.885000e+01 5.806400e+01
44 4.885000e+01 7.729000e+01
45 4.885000e+01 9.651600e+01
46 5.440000e+01 1.000000e+01
47 5.440000e+01 2.922600e+01
48 5.440000e+01 4.845200e+01
49 5.440000e+01 6.767700e+01
50 5.440000e+01 8.690300e+01
51 5.995000e+01 1.961300e+01
52 5.995000e+01 3.883900e+01
53 5.995000e+01 5.806400e+01
54 5.995000e+01 7.729000e+01
55 5.995000e+01 9.651600e+01
56 6.550000e+01 1.000000e+01
57 6.550000e+01 2.922600e+01
58 6.550000e+01 4.845200e+01
59 6.550000e+01 6.767700e+01
60 6.550000e+01 8.690300e+01
61 7.105000e+01 1.961300e+01
62 7.105000e+01 3.883900e+01
63 7.105000e+01 5.806400e+01
64 7.105000e+01 7.729000e+01
65 7.105000e+01 9.651600e+01
66 7.660000e+01 1.000000e+01
67 7.660000e+01 2.922600e+01
68 7.660000e+01 4.845200e+01
69 7.660000e+01 6.767700e+01
70 7.660000e+01 8.690300e+01
71 8.215000e+01 1.961300e+01
72 8.215000e+01 3.883900e+01
73 8.215000e+01 5.806400e+01
74 8.215000e+01 7.729000e+01
75 8.215000e+01 9.651600e+01
76 8.770000e+01 1.000000e+01
77 8.770000e+01 2.922600e+01
78 8.770000e+01 4.845200e+01
79 8.770000e+01 6.767700e+01
80 8.770000e+01 8.690300e+01
81 9.325000e+01 1.961300e+01
82 9.325000e+01 3.883900e+01
83 9.325000e+01 5.806400e+01
84 9.325000e+01 7.729000e+01
85 9.325000e+01 9.651600e+01
86 9.880000e+01 1.000000e+01
87 9.880000e+01 2.922600e+01
88 9.880000e+01 4.845200e+01
89 9.880000e+01 6.767700e+01
90 9.880000e+01 8.690300e+01
91 1.043500e+02 1.961300e+01
92 1.043500e+02 3.883900e+01
93 1.043500e+02 5.806400e+01
94 1.043500e+02 7.729000e+01
95 1.043500e+02 9.651600e+01
96 1.099000e+02 1.000000e+01
97 1.099000e+02 2.922600e+01
98 1.099000e+02 4.845200e+01
99 1.099000e+02 6.767700e+01
100 1.099000e+02 8.690300e+01
EOF
